networks/zoo_104_1061/lower/zoo_104_1061-lower.txt
Number of groups: 60
Flow 60: {2 12 0} {12 7 0} {7 10 0} {10 38 0} {38 90 0} 
Flow 86: {3 52 0} {52 46 0} {46 16 0} {16 45 0} {45 97 0} 
Flow 124: {5 8 0} {8 6 0} {6 58 0} 
Flow 144: {6 7 0} {7 59 0} 
Flow 162: {6 8 0} {8 33 0} {33 85 0} 
Flow 192: {7 8 0} {8 22 0} {22 74 0} 
Flow 210: {8 7 0} {7 12 0} {12 2 0} {2 54 0} 
Flow 211: {21 3 0} {3 55 0} 
Flow 216: {8 9 0} {9 61 0} 
Flow 224: {1 18 0} {18 70 0} 
Flow 252: {9 8 0} 
Flow 268: {10 13 0} {13 65 0} 
Flow 303: {11 50 0} {50 48 0} {48 17 0} 
Flow 349: {13 10 0} {10 8 0} {8 60 0} 
Flow 371: {14 8 0} {8 21 0} {21 31 0} {31 83 0} 
Flow 383: {15 49 0} {49 36 0} {36 88 0} 
Flow 434: {17 48 0} {48 50 0} {50 25 0} {25 77 0} 
Flow 448: {17 45 0} {45 16 0} {16 46 0} {46 98 0} 
Flow 457: {18 1 0} {1 49 0} {49 101 0} 
Flow 458: {19 37 0} {37 10 0} {10 62 0} 
Flow 464: {20 8 0} {8 5 0} {5 57 0} 
Flow 509: {22 8 0} {8 49 0} 
Flow 527: {23 49 0} {49 30 0} {30 82 0} 
Flow 540: {24 8 0} 
Flow 545: {25 50 0} {50 49 0} {49 16 0} {16 68 0} 
Flow 553: {26 4 0} {4 1 0} {1 12 0} {12 64 0} 
Flow 560: {28 8 0} 
Flow 561: {29 52 0} 
Flow 575: {30 49 0} {49 46 0} 
Flow 591: {31 21 0} {21 8 0} {8 10 0} {10 37 0} 
Flow 601: {32 52 0} 
Flow 606: {34 49 0} {49 48 0} {48 100 0} 
Flow 614: {35 52 0} {52 49 0} {49 23 0} {23 75 0} 
Flow 632: {36 49 0} {49 15 0} {15 67 0} 
Flow 693: {37 12 0} {12 1 0} {1 50 0} {50 102 0} 
Flow 706: {38 10 0} {10 7 0} {7 6 0} {6 27 0} {27 79 0} 
Flow 718: {39 4 0} {4 49 0} 
Flow 726: {40 49 0} {49 8 0} {8 14 0} {14 66 0} 
Flow 743: {41 49 0} 
Flow 747: {42 49 0} {49 1 0} {1 53 0} 
Flow 776: {43 49 0} {49 44 0} {44 96 0} 
Flow 785: {44 49 0} {49 4 0} {4 56 0} 
Flow 831: {12 37 0} {37 89 0} 
Flow 834: {16 49 0} {49 40 0} {40 92 0} 
Flow 838: {45 17 0} {17 47 0} {47 99 0} 
Flow 855: {46 49 0} {49 43 0} {43 95 0} 
Flow 861: {46 52 0} {52 104 0} 
Flow 875: {47 17 0} {17 69 0} 
Flow 881: {47 48 0} {48 49 0} {49 52 0} {52 29 0} {29 81 0} 
Flow 933: {48 47 0} 
Flow 947: {49 50 0} {50 11 0} {11 63 0} 
Flow 959: {4 26 0} {26 78 0} 
Flow 966: {49 34 0} {34 86 0} 
Flow 967: {52 35 0} {35 87 0} 
Flow 973: {49 41 0} {41 93 0} 
Flow 974: {49 42 0} {42 94 0} 
Flow 982: {49 51 0} {51 103 0} 
Flow 1012: {50 1 0} {1 4 0} {4 39 0} {39 91 0} 
Flow 1038: {52 3 0} {3 21 0} {21 73 0} 
Flow 1046: {52 32 0} {32 84 0} 
Time taken running everything: 5 seconds
