networks/zoo_104_1061/lower/zoo_104_1061-lower.sol
<?xml version = "1.0" encoding="UTF-8" standalone="yes"?>
<CPLEXSolution version="1.2">
 <header
   problemName="networks/zoo_104_1061/zoo_104_1061-lower.lp"
   solutionName="incumbent"
   solutionIndex="-1"
   objectiveValue="60"
   solutionTypeValue="3"
   solutionTypeString="primal"
   solutionStatusValue="101"
   solutionStatusString="integer optimal solution"
   solutionMethodString="mip"
   primalFeasible="1"
   dualFeasible="1"
   MIPNodes="0"
   MIPIterations="2053"
   writeLevel="3"/>
 <quality
   epInt="1.0000000000000001e-05"
   epRHS="9.9999999999999995e-07"
   maxIntInfeas="0"
   maxPrimalInfeas="0"
   maxX="1"
   maxSlack="1"/>
 <variables>
  <variable name="Y(60,38)" index="5937" value="1"/>
  <variable name="Y(86,45)" index="8544" value="1"/>
  <variable name="Y(124,6)" index="12305" value="1"/>
  <variable name="Y(144,7)" index="14306" value="1"/>
  <variable name="Y(162,33)" index="16132" value="1"/>
  <variable name="Y(192,22)" index="19121" value="1"/>
  <variable name="Y(210,2)" index="20901" value="1"/>
  <variable name="Y(211,3)" index="21002" value="1"/>
  <variable name="Y(216,9)" index="21508" value="1"/>
  <variable name="Y(224,18)" index="22317" value="1"/>
  <variable name="Y(252,9)" index="25108" value="1"/>
  <variable name="Y(268,13)" index="26712" value="1"/>
  <variable name="Y(303,48)" index="30247" value="1"/>
  <variable name="Y(349,8)" index="34807" value="1"/>
  <variable name="Y(371,31)" index="37030" value="1"/>
  <variable name="Y(383,36)" index="38235" value="1"/>
  <variable name="Y(434,25)" index="43324" value="1"/>
  <variable name="Y(448,46)" index="44745" value="1"/>
  <variable name="Y(457,49)" index="45648" value="1"/>
  <variable name="Y(458,10)" index="45709" value="1"/>
  <variable name="Y(464,5)" index="46304" value="1"/>
  <variable name="Y(509,8)" index="50807" value="1"/>
  <variable name="Y(527,30)" index="52629" value="1"/>
  <variable name="Y(540,24)" index="53923" value="1"/>
  <variable name="Y(545,16)" index="54415" value="1"/>
  <variable name="Y(553,12)" index="55211" value="1"/>
  <variable name="Y(560,28)" index="55927" value="1"/>
  <variable name="Y(561,29)" index="56028" value="1"/>
  <variable name="Y(575,49)" index="57448" value="1"/>
  <variable name="Y(591,10)" index="59009" value="1"/>
  <variable name="Y(601,32)" index="60031" value="1"/>
  <variable name="Y(606,48)" index="60547" value="1"/>
  <variable name="Y(614,23)" index="61322" value="1"/>
  <variable name="Y(632,15)" index="63114" value="1"/>
  <variable name="Y(693,50)" index="69249" value="1"/>
  <variable name="Y(706,27)" index="70526" value="1"/>
  <variable name="Y(718,4)" index="71703" value="1"/>
  <variable name="Y(726,14)" index="72513" value="1"/>
  <variable name="Y(743,41)" index="74240" value="1"/>
  <variable name="Y(747,1)" index="74600" value="1"/>
  <variable name="Y(776,44)" index="77543" value="1"/>
  <variable name="Y(785,4)" index="78403" value="1"/>
  <variable name="Y(831,37)" index="83036" value="1"/>
  <variable name="Y(834,40)" index="83339" value="1"/>
  <variable name="Y(838,47)" index="83746" value="1"/>
  <variable name="Y(855,43)" index="85442" value="1"/>
  <variable name="Y(861,52)" index="86051" value="1"/>
  <variable name="Y(875,17)" index="87416" value="1"/>
  <variable name="Y(881,29)" index="88028" value="1"/>
  <variable name="Y(933,48)" index="93247" value="1"/>
  <variable name="Y(947,11)" index="94610" value="1"/>
  <variable name="Y(959,26)" index="95825" value="1"/>
  <variable name="Y(966,34)" index="96533" value="1"/>
  <variable name="Y(967,35)" index="96634" value="1"/>
  <variable name="Y(973,41)" index="97240" value="1"/>
  <variable name="Y(974,42)" index="97341" value="1"/>
  <variable name="Y(982,51)" index="98150" value="1"/>
  <variable name="Y(1012,39)" index="101138" value="1"/>
  <variable name="Y(1038,21)" index="103720" value="1"/>
  <variable name="Y(1046,32)" index="104531" value="1"/>
  <variable name="X(1,4,1012)" index="107111" value="1"/>
  <variable name="X(1,12,553)" index="107713" value="1"/>
  <variable name="X(1,18,224)" index="108445" value="1"/>
  <variable name="X(1,49,457)" index="109739" value="1"/>
  <variable name="X(1,50,693)" index="111036" value="1"/>
  <variable name="X(1,53,747)" index="112151" value="1"/>
  <variable name="X(2,12,60)" index="112525" value="1"/>
  <variable name="X(2,54,210)" index="113736" value="1"/>
  <variable name="X(3,21,1038)" index="115625" value="1"/>
  <variable name="X(3,52,86)" index="115734" value="1"/>
  <variable name="X(3,55,211)" index="116920" value="1"/>
  <variable name="X(4,1,553)" index="118323" value="1"/>
  <variable name="X(4,26,959)" index="119790" value="1"/>
  <variable name="X(4,39,1012)" index="120904" value="1"/>
  <variable name="X(4,49,718)" index="121671" value="1"/>
  <variable name="X(4,56,785)" index="122799" value="1"/>
  <variable name="X(5,8,124)" index="123199" value="1"/>
  <variable name="X(5,57,464)" index="124600" value="1"/>
  <variable name="X(6,7,144)" index="125341" value="1"/>
  <variable name="X(6,8,162)" index="126420" value="1"/>
  <variable name="X(6,27,706)" index="128025" value="1"/>
  <variable name="X(6,58,124)" index="128504" value="1"/>
  <variable name="X(7,6,706)" index="130147" value="1"/>
  <variable name="X(7,8,192)" index="130694" value="1"/>
  <variable name="X(7,10,60)" index="131623" value="1"/>
  <variable name="X(7,12,210)" index="132834" value="1"/>
  <variable name="X(7,59,144)" index="133829" value="1"/>
  <variable name="X(8,5,464)" index="135210" value="1"/>
  <variable name="X(8,6,124)" index="135931" value="1"/>
  <variable name="X(8,7,210)" index="137078" value="1"/>
  <variable name="X(8,9,216)" index="138145" value="1"/>
  <variable name="X(8,10,591)" index="139581" value="1"/>
  <variable name="X(8,14,726)" index="140777" value="1"/>
  <variable name="X(8,21,371)" index="141483" value="1"/>
  <variable name="X(8,22,192)" index="142365" value="1"/>
  <variable name="X(8,33,162)" index="143396" value="1"/>
  <variable name="X(8,49,509)" index="144804" value="1"/>
  <variable name="X(8,60,349)" index="145705" value="1"/>
  <variable name="X(9,8,252)" index="146669" value="1"/>
  <variable name="X(9,61,216)" index="147694" value="1"/>
  <variable name="X(10,7,706)" index="149245" value="1"/>
  <variable name="X(10,8,349)" index="149949" value="1"/>
  <variable name="X(10,13,268)" index="150929" value="1"/>
  <variable name="X(10,37,591)" index="152313" value="1"/>
  <variable name="X(10,38,60)" index="152843" value="1"/>
  <variable name="X(10,62,458)" index="154302" value="1"/>
  <variable name="X(11,50,303)" index="155208" value="1"/>
  <variable name="X(11,63,947)" index="156913" value="1"/>
  <variable name="X(12,1,693)" index="157720" value="1"/>
  <variable name="X(12,2,210)" index="158298" value="1"/>
  <variable name="X(12,7,60)" index="159209" value="1"/>
  <variable name="X(12,37,831)" index="161041" value="1"/>
  <variable name="X(12,64,553)" index="161824" value="1"/>
  <variable name="X(13,10,349)" index="162681" value="1"/>
  <variable name="X(13,65,268)" index="163661" value="1"/>
  <variable name="X(14,8,371)" index="164825" value="1"/>
  <variable name="X(14,66,726)" index="166241" value="1"/>
  <variable name="X(15,49,383)" index="166959" value="1"/>
  <variable name="X(15,67,632)" index="168269" value="1"/>
  <variable name="X(16,45,86)" index="168784" value="1"/>
  <variable name="X(16,46,448)" index="170207" value="1"/>
  <variable name="X(16,49,834)" index="171654" value="1"/>
  <variable name="X(16,68,545)" index="172426" value="1"/>
  <variable name="X(17,45,448)" index="173390" value="1"/>
  <variable name="X(17,47,838)" index="174841" value="1"/>
  <variable name="X(17,48,434)" index="175498" value="1"/>
  <variable name="X(17,69,875)" index="177000" value="1"/>
  <variable name="X(18,1,457)" index="177643" value="1"/>
  <variable name="X(18,70,224)" index="178471" value="1"/>
  <variable name="X(19,37,458)" index="179766" value="1"/>
  <variable name="X(20,8,464)" index="180833" value="1"/>
  <variable name="X(21,3,211)" index="181641" value="1"/>
  <variable name="X(21,8,591)" index="183082" value="1"/>
  <variable name="X(21,31,371)" index="183923" value="1"/>
  <variable name="X(21,73,1038)" index="185651" value="1"/>
  <variable name="X(22,8,509)" index="186183" value="1"/>
  <variable name="X(22,74,192)" index="186927" value="1"/>
  <variable name="X(23,49,527)" index="188323" value="1"/>
  <variable name="X(23,75,614)" index="189471" value="1"/>
  <variable name="X(24,8,540)" index="190458" value="1"/>
  <variable name="X(25,50,545)" index="191524" value="1"/>
  <variable name="X(25,77,434)" index="192474" value="1"/>
  <variable name="X(26,4,553)" index="193654" value="1"/>
  <variable name="X(26,78,959)" index="195121" value="1"/>
  <variable name="X(27,79,706)" index="195929" value="1"/>
  <variable name="X(28,8,560)" index="196844" value="1"/>
  <variable name="X(29,52,561)" index="197906" value="1"/>
  <variable name="X(29,81,881)" index="199287" value="1"/>
  <variable name="X(30,49,575)" index="200042" value="1"/>
  <variable name="X(30,82,527)" index="201055" value="1"/>
  <variable name="X(31,21,591)" index="202180" value="1"/>
  <variable name="X(31,83,371)" index="203021" value="1"/>
  <variable name="X(32,52,601)" index="204312" value="1"/>
  <variable name="X(32,84,1046)" index="205818" value="1"/>
  <variable name="X(33,85,162)" index="205995" value="1"/>
  <variable name="X(34,49,606)" index="207500" value="1"/>
  <variable name="X(34,86,966)" index="208921" value="1"/>
  <variable name="X(35,52,614)" index="209630" value="1"/>
  <variable name="X(35,87,967)" index="211044" value="1"/>
  <variable name="X(36,49,632)" index="211770" value="1"/>
  <variable name="X(36,88,383)" index="212582" value="1"/>
  <variable name="X(37,10,458)" index="213718" value="1"/>
  <variable name="X(37,12,693)" index="215014" value="1"/>
  <variable name="X(37,89,831)" index="216213" value="1"/>
  <variable name="X(38,10,706)" index="217149" value="1"/>
  <variable name="X(38,90,60)" index="217564" value="1"/>
  <variable name="X(39,4,718)" index="219283" value="1"/>
  <variable name="X(39,91,1012)" index="220638" value="1"/>
  <variable name="X(40,49,726)" index="221413" value="1"/>
  <variable name="X(40,92,834)" index="222582" value="1"/>
  <variable name="X(41,49,743)" index="223552" value="1"/>
  <variable name="X(41,93,973)" index="224843" value="1"/>
  <variable name="X(42,49,747)" index="225678" value="1"/>
  <variable name="X(42,94,974)" index="226966" value="1"/>
  <variable name="X(43,49,776)" index="227829" value="1"/>
  <variable name="X(43,95,855)" index="228969" value="1"/>
  <variable name="X(44,49,785)" index="229960" value="1"/>
  <variable name="X(44,96,776)" index="231012" value="1"/>
  <variable name="X(45,16,448)" index="231745" value="1"/>
  <variable name="X(45,17,838)" index="233196" value="1"/>
  <variable name="X(45,97,86)" index="233505" value="1"/>
  <variable name="X(46,16,86)" index="234566" value="1"/>
  <variable name="X(46,49,855)" index="236396" value="1"/>
  <variable name="X(46,52,861)" index="237463" value="1"/>
  <variable name="X(46,98,448)" index="238111" value="1"/>
  <variable name="X(47,17,875)" index="239599" value="1"/>
  <variable name="X(47,48,881)" index="240666" value="1"/>
  <variable name="X(47,99,838)" index="241684" value="1"/>
  <variable name="X(48,17,303)" index="242210" value="1"/>
  <variable name="X(48,47,933)" index="243901" value="1"/>
  <variable name="X(48,49,881)" index="244910" value="1"/>
  <variable name="X(48,50,434)" index="245524" value="1"/>
  <variable name="X(48,100,606)" index="246757" value="1"/>
  <variable name="X(49,1,747)" index="247959" value="1"/>
  <variable name="X(49,4,785)" index="249058" value="1"/>
  <variable name="X(49,8,726)" index="250060" value="1"/>
  <variable name="X(49,15,632)" index="251027" value="1"/>
  <variable name="X(49,16,545)" index="252001" value="1"/>
  <variable name="X(49,23,614)" index="253131" value="1"/>
  <variable name="X(49,30,527)" index="254105" value="1"/>
  <variable name="X(49,34,966)" index="255605" value="1"/>
  <variable name="X(49,36,383)" index="256083" value="1"/>
  <variable name="X(49,40,834)" index="257595" value="1"/>
  <variable name="X(49,41,973)" index="258795" value="1"/>
  <variable name="X(49,42,974)" index="259857" value="1"/>
  <variable name="X(49,43,855)" index="260799" value="1"/>
  <variable name="X(49,44,776)" index="261781" value="1"/>
  <variable name="X(49,46,575)" index="262641" value="1"/>
  <variable name="X(49,48,606)" index="263733" value="1"/>
  <variable name="X(49,50,947)" index="265135" value="1"/>
  <variable name="X(49,51,982)" index="266231" value="1"/>
  <variable name="X(49,52,881)" index="267191" value="1"/>
  <variable name="X(49,101,457)" index="267828" value="1"/>
  <variable name="X(50,1,1012)" index="269444" value="1"/>
  <variable name="X(50,11,947)" index="270440" value="1"/>
  <variable name="X(50,25,434)" index="270988" value="1"/>
  <variable name="X(50,48,303)" index="271918" value="1"/>
  <variable name="X(50,49,545)" index="273221" value="1"/>
  <variable name="X(50,102,693)" index="274430" value="1"/>
  <variable name="X(51,103,982)" index="275780" value="1"/>
  <variable name="X(52,3,1038)" index="276897" value="1"/>
  <variable name="X(52,29,881)" index="277801" value="1"/>
  <variable name="X(52,32,1046)" index="279027" value="1"/>
  <variable name="X(52,35,967)" index="280009" value="1"/>
  <variable name="X(52,46,86)" index="280189" value="1"/>
  <variable name="X(52,49,614)" index="281778" value="1"/>
  <variable name="X(52,104,861)" index="283086" value="1"/>
 </variables>
</CPLEXSolution>
